presolving:
(round 1, fast)       0 del vars, 0 del conss, 0 add conss, 43850 chg bounds, 0 chg sides, 0 chg coeffs, 0 upgd conss, 0 impls, 0 clqs
   (0.2s) running MILP presolver
   (0.4s) MILP presolver (2 rounds): 0 aggregations, 0 fixings, 97 bound changes
   (1.0s) probing: 51/171 (29.8%) - 0 fixings, 0 aggregations, 0 implications, 0 bound changes
   (1.0s) probing aborted: 50/50 successive totally useless probings
   (1.0s) symmetry computation started: requiring (bin +, int -, cont +), (fixed: bin -, int +, cont -)
   (1.0s) no symmetry present
presolving (2 rounds: 2 fast, 1 medium, 1 exhaustive):
 0 deleted vars, 0 deleted constraints, 0 added constraints, 43947 tightened bounds, 0 added holes, 0 changed sides, 0 changed coefficients
 0 implications, 0 cliques
presolved problem has 29412 variables (171 bin, 0 int, 0 impl, 29241 cont) and 342 constraints
    342 constraints of type <linear>
Presolving Time: 0.95

 time | node  | left  |LP iter|LP it/n|mem/heur|mdpt |vars |cons |rows |cuts |sepa|confs|strbr|  dualbound   | primalbound  |  gap   | compl. 
p 1.2s|     1 |     0 |   252 |     - |   locks|   0 |  29k| 342 | 342 |   0 |  0 |   0 |   0 | 0.000000e+00 | 4.662561e+06 |    Inf | unknown
i 1.2s|     1 |     0 |   252 |     - |  oneopt|   0 |  29k| 342 | 342 |   0 |  0 |   0 |   0 | 0.000000e+00 | 4.239363e+06 |    Inf | unknown
  1.4s|     1 |     0 |   899 |     - |   188M |   0 |  29k| 342 | 342 |   0 |  0 |   0 |   0 | 3.869808e+06 | 4.239363e+06 |   9.55%| unknown
r 1.4s|     1 |     0 |   899 |     - |simplero|   0 |  29k| 342 | 342 |   0 |  0 |   0 |   0 | 3.869808e+06 | 4.188087e+06 |   8.22%| unknown
r 1.5s|     1 |     0 |   899 |     - |shifting|   0 |  29k| 342 | 342 |   0 |  0 |   0 |   0 | 3.869808e+06 | 4.175933e+06 |   7.91%| unknown
  1.6s|     1 |     0 |   951 |     - |   197M |   0 |  29k| 342 | 372 |  30 |  1 |   0 |   0 | 3.927617e+06 | 4.175933e+06 |   6.32%| unknown
r 1.6s|     1 |     0 |   951 |     - |simplero|   0 |  29k| 342 | 372 |  30 |  1 |   0 |   0 | 3.927617e+06 | 4.167268e+06 |   6.10%| unknown
r 1.7s|     1 |     0 |   951 |     - |shifting|   0 |  29k| 342 | 372 |  30 |  1 |   0 |   0 | 3.927617e+06 | 4.153837e+06 |   5.76%| unknown
  1.8s|     1 |     0 |   966 |     - |   200M |   0 |  29k| 342 | 379 |  37 |  2 |   0 |   0 | 3.931071e+06 | 4.153837e+06 |   5.67%| unknown
r 1.8s|     1 |     0 |   966 |     - |simplero|   0 |  29k| 342 | 379 |  37 |  2 |   0 |   0 | 3.931071e+06 | 4.122749e+06 |   4.88%| unknown
r 1.9s|     1 |     0 |   966 |     - |shifting|   0 |  29k| 342 | 379 |  37 |  2 |   0 |   0 | 3.931071e+06 | 4.111054e+06 |   4.58%| unknown
  2.0s|     1 |     0 |  1036 |     - |   200M |   0 |  29k| 342 | 414 |  72 |  3 |   0 |   0 | 3.962323e+06 | 4.111054e+06 |   3.75%| unknown
r 2.1s|     1 |     0 |  1036 |     - |shifting|   0 |  29k| 342 | 414 |  72 |  3 |   0 |   0 | 3.962323e+06 | 4.109774e+06 |   3.72%| unknown
  2.3s|     1 |     0 |  1072 |     - |   202M |   0 |  29k| 342 | 427 |  85 |  4 |   0 |   0 | 3.971343e+06 | 4.109774e+06 |   3.49%| unknown
  2.6s|     1 |     0 |  1122 |     - |   203M |   0 |  29k| 342 | 454 | 112 |  5 |   0 |   0 | 3.981741e+06 | 4.109774e+06 |   3.22%| unknown
 time | node  | left  |LP iter|LP it/n|mem/heur|mdpt |vars |cons |rows |cuts |sepa|confs|strbr|  dualbound   | primalbound  |  gap   | compl. 
  3.0s|     1 |     0 |  1183 |     - |   204M |   0 |  29k| 342 | 469 | 127 |  6 |   0 |   0 | 3.984453e+06 | 4.109774e+06 |   3.15%| unknown
  3.4s|     1 |     0 |  1226 |     - |   207M |   0 |  29k| 342 | 482 | 140 |  7 |   0 |   0 | 3.985164e+06 | 4.109774e+06 |   3.13%| unknown
r 3.4s|     1 |     0 |  1226 |     - |shifting|   0 |  29k| 342 | 482 | 140 |  7 |   0 |   0 | 3.985164e+06 | 4.108752e+06 |   3.10%| unknown
  3.8s|     1 |     0 |  1249 |     - |   208M |   0 |  29k| 342 | 491 | 149 |  8 |   0 |   0 | 3.985841e+06 | 4.108752e+06 |   3.08%| unknown
  4.2s|     1 |     0 |  1270 |     - |   210M |   0 |  29k| 342 | 496 | 154 |  9 |   0 |   0 | 3.986439e+06 | 4.108752e+06 |   3.07%| unknown
  4.7s|     1 |     0 |  1296 |     - |   212M |   0 |  29k| 342 | 500 | 158 | 10 |   0 |   0 | 3.986944e+06 | 4.108752e+06 |   3.06%| unknown
  5.2s|     1 |     0 |  1353 |     - |   213M |   0 |  29k| 342 | 512 | 170 | 11 |   0 |   0 | 3.988459e+06 | 4.108752e+06 |   3.02%| unknown
  5.7s|     1 |     0 |  1388 |     - |   215M |   0 |  29k| 342 | 522 | 180 | 12 |   0 |   0 | 3.988779e+06 | 4.108752e+06 |   3.01%| unknown
  6.2s|     1 |     0 |  1405 |     - |   215M |   0 |  29k| 342 | 527 | 185 | 13 |   0 |   0 | 3.988877e+06 | 4.108752e+06 |   3.01%| unknown
  6.8s|     1 |     0 |  1431 |     - |   216M |   0 |  29k| 342 | 531 | 189 | 14 |   0 |   0 | 3.988950e+06 | 4.108752e+06 |   3.00%| unknown
  7.3s|     1 |     0 |  1483 |     - |   216M |   0 |  29k| 342 | 540 | 198 | 15 |   0 |   0 | 3.989837e+06 | 4.108752e+06 |   2.98%| unknown
  7.8s|     1 |     0 |  1502 |     - |   217M |   0 |  29k| 342 | 531 | 207 | 16 |   0 |   0 | 3.990349e+06 | 4.108752e+06 |   2.97%| unknown
  8.4s|     1 |     0 |  1532 |     - |   217M |   0 |  29k| 342 | 536 | 212 | 17 |   0 |   0 | 3.990413e+06 | 4.108752e+06 |   2.97%| unknown
  8.9s|     1 |     0 |  1549 |     - |   217M |   0 |  29k| 342 | 542 | 218 | 18 |   0 |   0 | 3.990532e+06 | 4.108752e+06 |   2.96%| unknown
  9.4s|     1 |     0 |  1557 |     - |   220M |   0 |  29k| 342 | 544 | 220 | 19 |   0 |   0 | 3.990547e+06 | 4.108752e+06 |   2.96%| unknown
 time | node  | left  |LP iter|LP it/n|mem/heur|mdpt |vars |cons |rows |cuts |sepa|confs|strbr|  dualbound   | primalbound  |  gap   | compl. 
 10.0s|     1 |     0 |  1576 |     - |   220M |   0 |  29k| 342 | 551 | 227 | 20 |   0 |   0 | 3.990676e+06 | 4.108752e+06 |   2.96%| unknown
 10.6s|     1 |     0 |  1592 |     - |   221M |   0 |  29k| 342 | 558 | 234 | 21 |   0 |   0 | 3.990801e+06 | 4.108752e+06 |   2.96%| unknown
 11.2s|     1 |     0 |  1602 |     - |   221M |   0 |  29k| 342 | 541 | 237 | 22 |   0 |   0 | 3.990869e+06 | 4.108752e+06 |   2.95%| unknown
 11.5s|     1 |     0 |  1618 |     - |   221M |   0 |  29k| 342 | 544 | 240 | 23 |   0 |   0 | 3.990927e+06 | 4.108752e+06 |   2.95%| unknown
 11.8s|     1 |     0 |  1621 |     - |   221M |   0 |  29k| 342 | 545 | 241 | 24 |   0 |   0 | 3.990930e+06 | 4.108752e+06 |   2.95%| unknown
 12.2s|     1 |     0 |  1644 |     - |   223M |   0 |  29k| 342 | 552 | 248 | 25 |   0 |   0 | 3.991054e+06 | 4.108752e+06 |   2.95%| unknown
 12.6s|     1 |     0 |  1668 |     - |   223M |   0 |  29k| 342 | 558 | 254 | 26 |   0 |   0 | 3.991093e+06 | 4.108752e+06 |   2.95%| unknown
r12.7s|     1 |     0 |  1945 |     - |intshift|   0 |  29k| 342 | 558 | 254 | 26 |   0 |   0 | 3.991093e+06 | 4.044302e+06 |   1.33%| unknown
L25.6s|     1 |     0 |  4355 |     - |    rens|   0 |  29k| 342 | 558 | 254 | 26 |  71k|   0 | 3.991093e+06 | 3.993483e+06 |   0.06%| unknown
 26.2s|     1 |     0 |  4355 |     - |   246M |   0 |  29k| 342 | 558 | 254 | 26 |  71k|   0 | 3.991093e+06 | 3.993483e+06 |   0.06%| unknown
 26.2s|     1 |     0 |  4355 |     - |   247M |   0 |  29k| 342 | 558 | 254 | 26 |  71k|   0 | 3.991093e+06 | 3.993483e+06 |   0.06%| unknown
 26.7s|     1 |     0 |  4356 |     - |   248M |   0 |  29k| 342 | 560 | 256 | 27 |  71k|   0 | 3.991093e+06 | 3.993483e+06 |   0.06%| unknown
 26.8s|     1 |     0 |  4362 |     - |   248M |   0 |  29k| 342 | 530 | 257 | 28 |  71k|   0 | 3.991102e+06 | 3.993483e+06 |   0.06%| unknown
 26.9s|     1 |     0 |  4362 |     - |   248M |   0 |  29k| 317 | 530 | 257 | 28 |  71k|   0 | 3.991102e+06 | 3.993483e+06 |   0.06%| unknown
 27.4s|     1 |     0 |  4367 |     - |   248M |   0 |  29k| 317 | 531 | 258 | 29 |  71k|   0 | 3.991117e+06 | 3.993483e+06 |   0.06%| unknown
 time | node  | left  |LP iter|LP it/n|mem/heur|mdpt |vars |cons |rows |cuts |sepa|confs|strbr|  dualbound   | primalbound  |  gap   | compl. 
 27.5s|     1 |     0 |  4370 |     - |   250M |   0 |  29k| 317 | 532 | 259 | 30 |  71k|   0 | 3.991120e+06 | 3.993483e+06 |   0.06%| unknown
(run 1, node 1) restarting after 50 global fixings of integer variables

(restart) converted 190 cuts from the global cut pool into linear constraints

presolving:
(round 1, fast)       4325 del vars, 0 del conss, 0 add conss, 0 chg bounds, 0 chg sides, 0 chg coeffs, 0 upgd conss, 0 impls, 0 clqs
(round 2, exhaustive) 4325 del vars, 1 del conss, 0 add conss, 0 chg bounds, 1 chg sides, 0 chg coeffs, 0 upgd conss, 0 impls, 0 clqs
(round 3, exhaustive) 4325 del vars, 1 del conss, 0 add conss, 0 chg bounds, 1 chg sides, 0 chg coeffs, 67 upgd conss, 0 impls, 0 clqs
presolving (4 rounds: 4 fast, 3 medium, 3 exhaustive):
 4325 deleted vars, 1 deleted constraints, 0 added constraints, 0 tightened bounds, 0 added holes, 1 changed sides, 0 changed coefficients
 67 implications, 0 cliques
presolved problem has 25087 variables (121 bin, 0 int, 0 impl, 24966 cont) and 506 constraints
     67 constraints of type <varbound>
    439 constraints of type <linear>
Presolving Time: 2.12
transformed 78/94 original solutions to the transformed problem space

 time | node  | left  |LP iter|LP it/n|mem/heur|mdpt |vars |cons |rows |cuts |sepa|confs|strbr|  dualbound   | primalbound  |  gap   | compl. 
 30.7s|     1 |     0 |  5949 |     - |   305M |   0 |  25k| 506 | 506 |   0 |  0 |  71k|   0 | 3.991120e+06 | 3.993483e+06 |   0.06%| unknown
 30.7s|     1 |     0 |  5949 |     - |   305M |   0 |  25k| 506 | 506 |   0 |  0 |  71k|   0 | 3.991120e+06 | 3.993483e+06 |   0.06%| unknown
 31.1s|     1 |     0 |  5972 |     - |   306M |   0 |  25k| 506 | 511 |   5 |  1 |  71k|   0 | 3.991133e+06 | 3.993483e+06 |   0.06%| unknown
 31.2s|     1 |     0 |  5972 |     - |   306M |   0 |  25k| 506 | 511 |   5 |  1 |  71k|   0 | 3.991133e+06 | 3.993483e+06 |   0.06%| unknown
 31.5s|     1 |     0 |  5990 |     - |   306M |   0 |  25k| 506 | 513 |   7 |  2 |  71k|   0 | 3.991163e+06 | 3.993483e+06 |   0.06%| unknown
 31.6s|     1 |     0 |  5990 |     - |   306M |   0 |  25k| 506 | 513 |   7 |  2 |  71k|   0 | 3.991163e+06 | 3.993483e+06 |   0.06%| unknown
 32.0s|     1 |     0 |  5998 |     - |   306M |   0 |  25k| 506 | 515 |   9 |  3 |  71k|   0 | 3.991167e+06 | 3.993483e+06 |   0.06%| unknown
 32.5s|     1 |     0 |  6007 |     - |   307M |   0 |  25k| 506 | 516 |  10 |  4 |  71k|   0 | 3.991178e+06 | 3.993483e+06 |   0.06%| unknown
 32.8s|     1 |     0 |  6018 |     - |   307M |   0 |  25k| 506 | 518 |  12 |  5 |  71k|   0 | 3.991191e+06 | 3.993483e+06 |   0.06%| unknown
 33.1s|     1 |     0 |  6020 |     - |   307M |   0 |  25k| 506 | 521 |  15 |  6 |  71k|   0 | 3.991192e+06 | 3.993483e+06 |   0.06%| unknown
 33.4s|     1 |     0 |  6026 |     - |   307M |   0 |  25k| 506 | 522 |  16 |  7 |  71k|   0 | 3.991193e+06 | 3.993483e+06 |   0.06%| unknown
 33.8s|     1 |     0 |  6031 |     - |   307M |   0 |  25k| 506 | 523 |  17 |  8 |  71k|   0 | 3.991195e+06 | 3.993483e+06 |   0.06%| unknown
 34.1s|     1 |     0 |  6037 |     - |   307M |   0 |  25k| 506 | 526 |  20 |  9 |  71k|   0 | 3.991209e+06 | 3.993483e+06 |   0.06%| unknown
 34.4s|     1 |     0 |  6041 |     - |   307M |   0 |  25k| 506 | 529 |  23 | 10 |  71k|   0 | 3.991218e+06 | 3.993483e+06 |   0.06%| unknown
 34.7s|     1 |     0 |  6057 |     - |   307M |   0 |  25k| 506 | 531 |  25 | 11 |  71k|   0 | 3.991223e+06 | 3.993483e+06 |   0.06%| unknown
 time | node  | left  |LP iter|LP it/n|mem/heur|mdpt |vars |cons |rows |cuts |sepa|confs|strbr|  dualbound   | primalbound  |  gap   | compl. 
 35.1s|     1 |     0 |  6065 |     - |   308M |   0 |  25k| 506 | 534 |  28 | 12 |  71k|   0 | 3.991225e+06 | 3.993483e+06 |   0.06%| unknown
 35.2s|     1 |     0 |  6065 |     - |   308M |   0 |  25k| 499 | 534 |  28 | 12 |  71k|   0 | 3.991225e+06 | 3.993483e+06 |   0.06%| unknown
 35.6s|     1 |     0 |  6073 |     - |   308M |   0 |  25k| 499 | 536 |  30 | 13 |  71k|   0 | 3.991226e+06 | 3.993483e+06 |   0.06%| unknown
 36.2s|     1 |     0 |  6084 |     - |   308M |   0 |  25k| 499 | 538 |  32 | 14 |  71k|   0 | 3.991229e+06 | 3.993483e+06 |   0.06%| unknown
 36.8s|     1 |     0 |  6096 |     - |   308M |   0 |  25k| 499 | 495 |  35 | 15 |  71k|   0 | 3.991240e+06 | 3.993483e+06 |   0.06%| unknown
 37.2s|     1 |     0 |  6101 |     - |   308M |   0 |  25k| 499 | 497 |  37 | 16 |  71k|   0 | 3.991241e+06 | 3.993483e+06 |   0.06%| unknown
 37.7s|     1 |     0 |  6107 |     - |   308M |   0 |  25k| 499 | 499 |  39 | 17 |  71k|   0 | 3.991241e+06 | 3.993483e+06 |   0.06%| unknown
 38.2s|     1 |     0 |  6123 |     - |   309M |   0 |  25k| 499 | 503 |  43 | 18 |  71k|   0 | 3.991252e+06 | 3.993483e+06 |   0.06%| unknown
 38.7s|     1 |     0 |  6133 |     - |   309M |   0 |  25k| 499 | 504 |  44 | 19 |  71k|   0 | 3.991253e+06 | 3.993483e+06 |   0.06%| unknown
 39.2s|     1 |     0 |  6138 |     - |   309M |   0 |  25k| 499 | 505 |  45 | 20 |  71k|   0 | 3.991254e+06 | 3.993483e+06 |   0.06%| unknown
 39.6s|     1 |     0 |  6146 |     - |   309M |   0 |  25k| 499 | 495 |  46 | 21 |  71k|   0 | 3.991254e+06 | 3.993483e+06 |   0.06%| unknown
 40.1s|     1 |     0 |  6149 |     - |   309M |   0 |  25k| 499 | 496 |  47 | 22 |  71k|   0 | 3.991254e+06 | 3.993483e+06 |   0.06%| unknown
 40.6s|     1 |     0 |  6151 |     - |   309M |   0 |  25k| 499 | 497 |  48 | 23 |  71k|   0 | 3.991254e+06 | 3.993483e+06 |   0.06%| unknown
 44.4s|     1 |     0 |  6506 |     - |   312M |   0 |  25k| 499 | 497 |  48 | 23 |  95k|  17 | 3.991483e+06 | 3.993483e+06 |   0.05%| unknown
 44.7s|     1 |     0 |  6506 |     - |   312M |   0 |  25k| 499 | 496 |  48 | 24 |  95k|  17 | 3.991483e+06 | 3.993483e+06 |   0.05%| unknown
 time | node  | left  |LP iter|LP it/n|mem/heur|mdpt |vars |cons |rows |cuts |sepa|confs|strbr|  dualbound   | primalbound  |  gap   | compl. 
 44.8s|     1 |     0 |  6508 |     - |   312M |   0 |  25k| 499 | 497 |  49 | 25 |  95k|  17 | 3.991483e+06 | 3.993483e+06 |   0.05%| unknown
 45.6s|     1 |     0 |  6512 |     - |   312M |   0 |  25k| 497 | 497 |  49 | 25 |  95k|  23 | 3.991483e+06 | 3.993483e+06 |   0.05%| unknown
 46.1s|     1 |     0 |  6515 |     - |   312M |   0 |  25k| 497 | 498 |  50 | 26 |  95k|  23 | 3.991483e+06 | 3.993483e+06 |   0.05%| unknown
 46.1s|     1 |     0 |  6516 |     - |   312M |   0 |  25k| 497 | 499 |  51 | 27 |  95k|  23 | 3.991483e+06 | 3.993483e+06 |   0.05%| unknown
 46.4s|     1 |     0 |  6534 |     - |   312M |   0 |  25k| 497 | 499 |  51 | 27 |  95k|  25 | 3.991483e+06 | 3.993483e+06 |   0.05%| unknown
(run 2, node 1) restarting after 13 global fixings of integer variables

(restart) converted 44 cuts from the global cut pool into linear constraints

presolving:
(round 1, fast)       868 del vars, 5 del conss, 0 add conss, 0 chg bounds, 0 chg sides, 0 chg coeffs, 0 upgd conss, 67 impls, 0 clqs
   (47.4s) running MILP presolver
   (47.4s) MILP presolver (2 rounds): 0 aggregations, 0 fixings, 2 bound changes
(round 2, exhaustive) 868 del vars, 8 del conss, 0 add conss, 2 chg bounds, 2 chg sides, 0 chg coeffs, 0 upgd conss, 67 impls, 0 clqs
presolving (3 rounds: 3 fast, 2 medium, 2 exhaustive):
 868 deleted vars, 8 deleted constraints, 0 added constraints, 2 tightened bounds, 0 added holes, 2 changed sides, 0 changed coefficients
 67 implications, 0 cliques
presolved problem has 24219 variables (108 bin, 0 int, 0 impl, 24111 cont) and 533 constraints
     61 constraints of type <varbound>
    472 constraints of type <linear>
Presolving Time: 3.32
transformed 11/100 original solutions to the transformed problem space

 time | node  | left  |LP iter|LP it/n|mem/heur|mdpt |vars |cons |rows |cuts |sepa|confs|strbr|  dualbound   | primalbound  |  gap   | compl. 
 48.6s|     1 |     0 |  7888 |     - |   320M |   0 |  24k| 533 | 533 |   0 |  0 |  95k|  25 | 3.991483e+06 | 3.993483e+06 |   0.05%| unknown
 48.6s|     1 |     0 |  7888 |     - |   320M |   0 |  24k| 533 | 533 |   0 |  0 |  95k|  25 | 3.991483e+06 | 3.993483e+06 |   0.05%| unknown
 49.2s|     1 |     0 |  7891 |     - |   320M |   0 |  24k| 533 | 535 |   2 |  1 |  95k|  25 | 3.991483e+06 | 3.993483e+06 |   0.05%| unknown
 49.8s|     1 |     0 |  7916 |     - |   321M |   0 |  24k| 533 | 537 |   4 |  2 |  95k|  25 | 3.991483e+06 | 3.993483e+06 |   0.05%| unknown
 50.5s|     1 |     0 |  7922 |     - |   321M |   0 |  24k| 533 | 540 |   7 |  3 |  95k|  25 | 3.991483e+06 | 3.993483e+06 |   0.05%| unknown
 51.1s|     1 |     0 |  7924 |     - |   321M |   0 |  24k| 533 | 542 |   9 |  4 |  95k|  25 | 3.991483e+06 | 3.993483e+06 |   0.05%| unknown
 51.7s|     1 |     0 |  7925 |     - |   321M |   0 |  24k| 533 | 543 |  10 |  6 |  95k|  25 | 3.991483e+06 | 3.993483e+06 |   0.05%| unknown
 52.1s|     1 |     0 |  7925 |     - |   321M |   0 |  24k| 532 | 543 |  10 |  8 |  95k|  25 | 3.991483e+06 | 3.993483e+06 |   0.05%| unknown
 52.5s|     1 |     0 |  7926 |     - |   321M |   0 |  24k| 532 | 544 |  11 |  9 |  95k|  25 | 3.991483e+06 | 3.993483e+06 |   0.05%| unknown
 55.9s|     1 |     0 |  8362 |     - |   321M |   0 |  24k| 532 | 544 |  11 | 11 |  95k|  36 | 3.991740e+06 | 3.993483e+06 |   0.04%| unknown
 56.0s|     1 |     0 |  8362 |     - |   321M |   0 |  24k| 532 | 543 |  11 | 11 |  95k|  36 | 3.991740e+06 | 3.993483e+06 |   0.04%| unknown
 56.6s|     1 |     0 |  8363 |     - |   321M |   0 |  24k| 532 | 546 |  14 | 12 |  95k|  36 | 3.991740e+06 | 3.993483e+06 |   0.04%| unknown
 56.6s|     1 |     0 |  8367 |     - |   321M |   0 |  24k| 532 | 547 |  15 | 13 |  95k|  36 | 3.991740e+06 | 3.993483e+06 |   0.04%| unknown
 57.7s|     1 |     0 |  8373 |     - |   321M |   0 |  24k| 531 | 547 |  15 | 13 | 118k|  47 | 3.991740e+06 | 3.993483e+06 |   0.04%| unknown
 58.2s|     1 |     0 |  8378 |     - |   321M |   0 |  24k| 531 | 549 |  17 | 14 | 118k|  47 | 3.991740e+06 | 3.993483e+06 |   0.04%| unknown
 time | node  | left  |LP iter|LP it/n|mem/heur|mdpt |vars |cons |rows |cuts |sepa|confs|strbr|  dualbound   | primalbound  |  gap   | compl. 
 58.2s|     1 |     2 |  8378 |     - |   321M |   0 |  24k| 531 | 549 |  17 | 15 | 118k|  47 | 3.991740e+06 | 3.993483e+06 |   0.04%| unknown
d60.5s|     8 |     9 |  8567 | 438.6 |pscostdi|   6 |  24k| 535 | 449 |   0 |  4 | 118k|  79 | 3.991740e+06 | 3.993483e+06 |   0.04%| unknown
 77.2s|   100 |    21 | 12009 |  73.2 |   330M |  11 |  24k| 547 | 449 |  41 |  3 | 118k| 286 | 3.992451e+06 | 3.993483e+06 |   0.03%|  55.16%

SCIP Status        : problem is solved [optimal solution found]
Solving Time (sec) : 84.00
Solving Nodes      : 171 (total of 173 nodes in 3 runs)
Primal Bound       : +3.99348274326848e+06 (400 solutions)
Dual Bound         : +3.99348274326848e+06
Gap                : 0.00 %
Solve Status: optimal
Solve Time: 84.01 seconds
